c --- [ banner ] -------------------------------------------------------------
c 
c CaDiCaL Radically Simplified CDCL SAT Solver
c Copyright (c) 2016-2021 A. Biere, M. Fleury, N. Froleyks
c 
c Version 1.5.2 a5f15211db36c3956764e18194dd5bd63bf3b5e6
c g++ (GCC) 9.3.0 -Wall -Wextra -O3 -DNDEBUG
c Fri Oct 21 01:27:37 EDT 2022 Linux gra-login3 3.10.0-1160.66.1.el7.x86_64 x86_64
c 
c --- [ limit ] --------------------------------------------------------------
c 
c setting conflict limit to 200000 conflicts (due to '200000')
c 
c --- [ parsing input ] ------------------------------------------------------
c 
c reading DIMACS file from '33.cubes2737.adj'
c opening file to read '33.cubes2737.adj'
c found 'p cnf 6160 1595478' header
c parsed 1595478 clauses in 19.15 seconds process time
c closing file '33.cubes2737.adj'
c after reading 1457566796 bytes 1390.0 MB
c 
c --- [ options ] ------------------------------------------------------------
c 
c all options are set to their default value
c 
c --- [ solving ] ------------------------------------------------------------
c 
c time measured in process time since initialization
c 
c  seconds    reductions  redundant   irredundant
c          MB     restarts       trail       variables
c            level   conflicts       glue         remaining
c 
c * 19.15 1377  0 0   0    0    0  0% 0 1595422 2363 38%
c { 20.41 1429  0 0   0    0    0  0% 0 1595422 2363 38%
c i 22.60 1482 915 0   3   39   35 37% 23 1595422 2362 38%
c i 23.93 1501 596 0  10   66   57 32% 30 1595422 2361 38%
c i 24.93 1503 393 0  21  113   98 31% 44 1595422 2360 38%
c i 25.00 1503 355 0  27  132  113 31% 48 1595422 2359 38%
c i 25.01 1503 352 0  27  133  113 31% 48 1595422 2358 38%
c i 25.02 1503 345 0  27  136  113 31% 47 1595422 2357 38%
c i 25.03 1503 340 0  28  138  114 31% 47 1595422 2356 38%
c i 25.07 1503 326 0  30  145  117 31% 47 1595422 2355 38%
c i 25.17 1503 271 0  30  178  139 30% 44 1595422 2354 38%
c i 25.27 1503 214 0  30  235  177 30% 41 1595422 2353 38%
c - 28.87 1417 177 1  30  300  221 30% 38 198317 2353 38%
c i 29.49 1376 144 1  31  407  294 30% 36 198317 2352 38%
c i 29.73 1376 144 1  39  438  321 29% 38 198317 2351 38%
c i 29.83 1376 144 1  43  454  336 29% 39 198317 2350 38%
c i 29.91 1376 141 1  45  474  353 29% 38 198317 2349 38%
c i 30.03 1376 138 1  48  510  388 29% 39 198317 2348 38%
c i 30.09 1376 139 1  51  524  399 29% 40 198317 2347 38%
c i 30.13 1376 138 1  55  547  413 29% 41 198317 2344 38%
c 
c  seconds     reductions  redundant   irredundant
c          MB      restarts       trail       variables
c             level   conflicts       glue         remaining
c 
c i 30.24 1376 138 1  59  560  425 29% 41 198317 2343 38%
c i 30.27 1376 138 1  61  568  429 29% 41 198317 2341 38%
c i 30.43 1376 136 1  68  589  447 29% 41 198317 2340 38%
c i 30.43 1376 137 1  68  592  449 29% 41 198317 2339 38%
c i 30.46 1376 137 1  69  596  451 29% 41 198317 2337 38%
c i 30.93 1376 135 1  76  642  486 29% 42 198317 2336 38%
c i 31.17 1376 130 1  79  687  523 29% 41 198317 2335 38%
c i 31.20 1376 124 1  79  735  564 29% 40 198317 2334 38%
c i 31.22 1376 124 1  79  741  568 29% 40 198317 2333 38%
c i 31.22 1376 123 1  79  743  569 29% 40 198317 2332 38%
c i 31.22 1376 123 1  79  744  569 29% 40 198317 2331 38%
c i 31.22 1376 123 1  79  745  569 29% 40 198317 2330 38%
c i 31.24 1376 123 1  79  747  570 29% 40 198317 2329 38%
c i 31.27 1376 123 1  79  762  581 29% 40 198317 2328 38%
c i 31.69 1376 119 1  88  861  669 29% 41 198317 2327 38%
c i 31.69 1376 119 1  89  862  669 29% 41 198317 2326 38%
c i 31.69 1376 119 1  89  863  669 29% 41 198317 2325 38%
c } 31.85 1376 109 1  91 1000  775 29% 39 198317 2325 38%
c [ 31.85 1376  0 1  91 1000  775  0% 0 198317 2325 38%
c O 31.85 1376 10 1  91 1004  779 18% 4 198317 2325 38%
c 
c  seconds    reductions  redundant  irredundant
c          MB     restarts       trail      variables
c            level   conflicts       glue        remaining
c 
c i 31.97 1376 14 1  91 1024  791 24% 9 198317 2324 38%
c i 31.99 1376 14 1  91 1027  793 25% 9 198317 2323 38%
c i 32.00 1376 14 1  91 1032  797 26% 9 198317 2322 38%
c i 32.01 1376 21 1  91 1042  806 28% 15 198317 2321 38%
c i 32.06 1376 41 1  91 1067  827 30% 28 198317 2319 38%
c - 32.45 1462 50 2  91 1078  715 30% 33 198222 2319 38%
c i 32.55 1462 52 2  91 1123  752 31% 36 198222 2318 38%
c i 32.55 1462 51 2  91 1131  757 31% 36 198222 2317 38%
c i 32.58 1462 49 2  91 1186  802 32% 36 198222 2316 38%
c i 32.59 1462 47 2  91 1210  820 32% 35 198222 2315 38%
c i 32.61 1462 45 2  91 1250  845 32% 33 198222 2314 38%
c i 32.61 1462 44 2  91 1252  846 32% 33 198222 2313 38%
c i 32.64 1462 41 2  91 1313  892 32% 31 198222 2312 38%
c i 32.66 1462 38 2  91 1374  937 32% 30 198222 2311 38%
c i 32.77 1462 32 2  91 1700 1169 32% 26 198222 2310 38%
c i 32.79 1462 31 2  91 1756 1204 32% 26 198222 2309 37%
c i 32.89 1462 29 2  91 1949 1353 32% 24 198222 2308 37%
c - 33.32 1461 31 3  92 2245 1230 32% 26 198189 2308 37%
c ] 34.11 1461 29 3  92 3002 1817 53% 25 198189 2308 37%
c { 34.11 1461 109 3  92 3002 1817 78% 39 198189 2308 37%
c 
c  seconds     reductions  redundant   irredundant
c          MB      restarts       trail       variables
c             level   conflicts       glue         remaining
c 
c F 34.17 1461 109 3  92 3005 1820 78% 39 198189 2308 37%
c i 34.50 1461 101 3  92 3136 1930 74% 37 198189 2307 37%
c i 34.56 1461 99 3  92 3190 1971 73% 37 198189 2306 37%
c i 34.58 1461 98 3  92 3199 1978 72% 37 198189 2305 37%
c i 34.59 1461 97 3  92 3222 1999 72% 36 198189 2304 37%
c i 34.74 1461 92 3  96 3365 2119 69% 36 198189 2303 37%
c i 34.74 1461 92 3  96 3367 2120 69% 36 198189 2302 37%
c i 34.75 1461 91 3  96 3395 2139 69% 36 198189 2301 37%
c i 34.92 1461 89 3 102 3511 2236 67% 36 198189 2300 37%
c i 35.28 1461 87 3 115 3606 2315 66% 36 198189 2299 37%
c i 35.49 1461 86 3 118 3687 2385 65% 37 198189 2298 37%
c i 35.54 1461 86 3 122 3705 2399 65% 37 198189 2297 37%
c i 35.54 1461 86 3 123 3707 2400 65% 37 198189 2296 37%
c i 35.57 1461 85 3 123 3741 2433 64% 36 198189 2295 37%
c i 35.59 1461 85 3 123 3756 2443 64% 36 198189 2294 37%
c - 35.89 1377 84 4 126 3802 1786 64% 36 198150 2294 37%
c d 36.47 1377 62 4 126 5000 2616 58% 30 198125 2285 37%
c 2 36.52 1377 62 4 126 5000 3430 58% 30 198099 2285 37%
c p 40.30 1377 62 4 126 5000 5625 58% 30 198099 2220 36%
c d 40.63 1377 62 4 126 5000 5456 58% 30 197514 2219 36%
c 
c  seconds    reductions  redundant   irredundant
c          MB     restarts       trail       variables
c            level   conflicts       glue         remaining
c 
c - 42.36 1379 59 5 185 5747 2264 56% 30 197514 2219 36%
c # 42.56 1379 58 5 185 6006 2476 56% 30 197514 2219 36%
c } 42.95 1379 50 5 185 7003 3162 55% 27 197514 2219 36%
c [ 42.95 1379 29 5 185 7003 3162 53% 25 197514 2219 36%
c - 43.32 1380 25 6 186 8081 2552 52% 21 197514 2219 36%
c I 43.84 1380 23 6 187 10009 3887 52% 20 197514 2219 36%
c - 44.91 1380 30 7 188 10801 3180 51% 25 197514 2219 36%
c - 47.42 1380 40 8 190 13911 3752 50% 33 197514 2219 36%
c ] 48.43 1380 41 8 190 15003 4519 50% 34 197514 2219 36%
c { 48.43 1380 50 8 190 15003 4519 55% 27 197514 2219 36%
c 2 48.48 1380 50 8 190 15003 5343 55% 27 197513 2219 36%
c p 49.85 1380 50 8 190 15003 7478 55% 27 197513 2219 36%
c B 49.94 1380 50 8 190 15013 7488 55% 27 197513 2219 36%
c - 53.20 1382 45 9 343 17409 4408 53% 27 197513 2219 36%
c s 53.72 1382 40 9 343 18800 4861 53% 24 195763 2219 36%
c v 56.11 1382 40 9 343 18800 4861 53% 24 195754 2219 36%
c t 56.19 1382 40 9 343 18800 4852 53% 24 195743 2219 36%
c e 56.87 1385 40 9 343 18800 4653 53% 24 193062 880 14%
c s 56.96 1385 40 9 343 18800 4653 53% 24 192277 880 14%
c W 64.45 1385 44 9 681 21014 6413 68% 26 192277 880 14%
c 
c  seconds    reductions    redundant   irredundant
c          MB      restarts        trail       variables
c            level     conflicts       glue        remaining
c 
c - 64.88 1385 44 10 717 21295 4745 69% 26 192277 880 14%
c - 65.92 1385 37 11 726 25531 5836 73% 24 192277 880 14%
c F 66.72 1385 35 11 726 28017 7827 73% 23 192277 880 14%
c 3 74.02 1385 38 11 1130 30003 9914 73% 24 192276 880 14%
c p 76.10 1385 38 11 1130 30003 11284 73% 24 192276 879 14%
c - 76.47 1385 38 12 1140 30154 6594 73% 24 192273 879 14%
c } 78.70 1385 39 12 1311 31004 7331 73% 25 192273 879 14%
c [ 78.70 1385 41 12 1311 31004 7331 131% 34 192273 879 14%
c - 81.01 1385 45 13 1313 35161 6810 113% 38 192273 879 14%
c B 81.49 1385 45 13 1314 36020 7522 110% 38 192273 879 14%
c - 83.06 1385 43 14 1317 40554 6837 101% 36 192273 879 14%
c W 85.16 1385 41 14 1318 45022 9602 95% 35 192273 879 14%
c - 85.71 1385 40 15 1319 46332 6857 94% 35 192273 879 14%
c s 86.79 1385 39 15 1319 49888 8971 91% 33 191153 879 14%
c v 89.08 1385 39 15 1319 49888 8971 91% 33 191139 879 14%
c e 89.88 1386 39 15 1319 49888 8971 91% 33 191136 876 14%
c s 90.01 1386 39 15 1319 49888 8970 91% 33 190001 876 14%
c p 92.04 1386 39 15 1319 50004 11066 91% 33 190001 876 14%
c - 93.01 1386 38 16 1319 52495 7310 90% 33 190001 876 14%
c O 93.70 1386 37 16 1320 55025 9070 88% 32 190001 876 14%
c 
c  seconds    reductions     redundant   irredundant
c          MB      restarts         trail       variables
c            level      conflicts       glue        remaining
c 
c - 94.69 1386 35 17 1323 59018 7879 86% 31 190001 876 14%
c ] 95.50 1386 34 17 1326 63005 10320 85% 29 190001 876 14%
c { 95.50 1386 39 17 1326 63005 10320 73% 25 190001 876 14%
c - 96.33 1386 37 18 1356 65923 8361 73% 24 190001 876 14%
c B 96.37 1386 37 18 1356 66027 8446 73% 24 190001 876 14%
c - 105.93 1386 37 19 1943 73211 9247 73% 25 190001 876 14%
c p 108.04 1386 36 19 1957 75004 12759 73% 24 190001 876 14%
c W 109.41 1386 35 19 1991 78028 14557 73% 24 190001 876 14%
c - 110.09 1386 34 20 1991 80883 9619 74% 24 190001 876 14%
c - 111.95 1386 32 21 2042 88940 9863 74% 23 190001 876 14%
c # 113.67 1386 32 21 2116 91031 11239 74% 23 190001 876 14%
c } 115.99 1386 31 21 2315 94222 13482 74% 23 190001 876 14%
c 1 115.99 1386 31 21 2315 94222 13482 74% 23 190001 876 14%
c 
c --- [ writing output ] -----------------------------------------------------
c 
c writing simplified CNF to DIMACS file 'simp/33.cubes2737.adj.simp1'
c * 115.99 1386 31 21 2315 94222 13482 74% 23 190001 876 14%
c opening file to write 'simp/33.cubes2737.adj.simp1'
c writing 'p cnf 6160 190001' header
c closing file 'simp/33.cubes2737.adj.simp1'
c after writing 88626839 bytes 84.5 MB
c wrote 190001 clauses in 0.64 seconds process time
c 
c --- [ writing extension ] --------------------------------------------------
c 
c writing extension stack to 'simp/33.cubes2737.adj.ext1'
c opening file to write 'simp/33.cubes2737.adj.ext1'
c closing file 'simp/33.cubes2737.adj.ext1'
c after writing 88077 bytes 0.1 MB
c wrote 3906 witnesses in 0.00 seconds process time
c 
c --- [ result ] -------------------------------------------------------------
c 
s SATISFIABLE
c 
c --- [ run-time profiling ] -------------------------------------------------
c 
c process time taken by individual solving procedures
c (percentage relative to process time for solving)
c 
c        78.55   81.11% search
c        57.33   59.20% unstable
c        19.15   19.77% parse
c        18.71   19.32% stable
c        18.29   18.89% simplify
c         9.44    9.75% probe
c         4.80    4.96% vivify
c         2.70    2.79% elim
c         1.27    1.31% lucky
c         1.25    1.29% walk
c         0.41    0.42% subsume
c         0.14    0.14% ternary
c   =================================
c        96.85   83.04% solve
c 
c last line shows process time for solving
c (percentage relative to total process time)
c 
c --- [ statistics ] ---------------------------------------------------------
c 
c chronological:             15960        16.94 %  of conflicts
c conflicts:                 94222       972.91    per second
c decisions:                252024      2602.33    per second
c eliminated:                 1342        21.79 %  of all variables
c fixed:                       788        12.79 %  of all variables
c learned:                   92213        97.87 %  per conflict
c learned_lits:           19700317       100.00 %  learned literals
c minimized:                     0         0.00 %  learned literals
c shrunken:               12423091        63.06 %  learned literals
c minishrunken:            1471975         7.47 %  learned literals
c propagations:            6941658         0.07 M  per second
c reduced:                   50112        53.19 %  per conflict
c rephased:                     13      7247.85    interval
c restarts:                   2315        40.70    interval
c stabilizing:                   3        44.58 %  of conflicts
c substituted:                  10         0.16 %  of all variables
c subsumed:                  33313         0.96 %  of all clauses
c strengthened:               4845         0.14 %  of all clauses
c ternary:                    3006         0.66 %  of resolved
c vivified:                     37         0.00 %  of all clauses
c walked:                        3     31407.33    interval
c weakened:                   3118         3.03    average size
c 
c seconds are measured in process time for solving
c 
c --- [ resources ] ----------------------------------------------------------
c 
c total process time since initialization:       116.63    seconds
c total real time since initialization:          116.94    seconds
c maximum resident set size of process:         1547.05    MB
c 
c --- [ shutting down ] ------------------------------------------------------
c 
c exit 10
WARNING! DIMACS header mismatch: wrong number of variables.
============================[ Problem Statistics ]=============================
|                                                                             |
|  Number of variables:          3251                                         |
|  Number of clauses:          190001                                         |
|  Parse time:                   1.16 s                                       |
|  Simplification time:          0.02 s                                       |
|                                                                             |
============================[ Search Statistics ]====================================================
| Conflicts |          ORIGINAL         |          LEARNT          | Num Sols |      SUBGRAPHS      |
|           |    Vars  Clauses Literals |    Limit  Clauses Lit/Cl |          | Canonical Noncanon. |
=====================================================================================================
|       101 |    3160   190002 19168189 |     2000      101    148 |        0 |        20         1 |
|       264 |    3160   190015 19168406 |     2000      264    121 |        0 |        36        14 |
|       534 |    3160   190060 19169735 |     2000      534    122 |        0 |        48        59 |
|       873 |    3160   190062 19169788 |     2000      873    126 |        0 |        57        61 |
|      1526 |    3160   190209 19172237 |     2000     1526    114 |        0 |       101       208 |
|      2319 |    3160   190243 19173761 |     3603     1322     83 |        0 |       119       242 |
|      3828 |    3160   190613 19181842 |     3603     2831     95 |        0 |       289       612 |
|      6169 |    3160   191246 19191139 |     5002     3371     62 |        0 |       404      1245 |
|      8775 |    3160   191290 19192148 |     6304     3479     63 |        0 |       418      1289 |
|     13066 |    3160   191737 19201741 |     7554     4620     59 |        0 |       613      1736 |
|     19019 |    3160   191924 19206642 |     8786     6805     75 |        0 |       705      1923 |
|     28629 |    3160   192885 19225282 |    11206     7035     52 |        0 |      1052      2884 |
|     42542 |    3160   193824 19244899 |    13611     9153     55 |        0 |      1581      3823 |
|     63388 |    3160   195209 19273686 |    16019    15807     71 |        0 |      2037      5208 |
|     96464 |    3160   199093 19338843 |    20813    13277     48 |        0 |      2686      9092 |
|    143078 |    3160   201918 19391132 |    25614    14692     41 |        0 |      3374     11917 |
|    210497 |    3160   203653 19425236 |    30412    27309     76 |        0 |      4255     13652 |
|    311637 |    3160   206267 19476041 |    37604    28241     66 |        0 |      5203     16266 |
|    466286 |    3160   213127 19631516 |    46007    38693     78 |        2 |      9109     23124 |
|    697891 |    3160   223049 19823153 |    56830    41721     67 |        2 |     11622     33046 |
|   1041933 |    3160   234566 20044208 |    70019    40352     62 |        2 |     15383     44563 |
|   1549589 |    3160   243434 20219409 |    85610    46199     52 |        2 |     19437     53431 |
|   2313529 |    3160   259192 20499280 |   104814    53343     40 |        2 |     23564     69189 |
|   3447075 |    3160   270464 20744451 |   127621    88696     62 |        2 |     26950     80461 |
|   5187759 |    3160   327737 21797299 |   156430   132589     75 |        2 |     37454    137734 |
|   7740008 |    3160   354870 22374201 |   191223   173431     77 |       69 |     48060    164800 |
|  11584242 |    3160   411429 23668276 |   234417   198059     72 |       77 |     65180    221351 |
|  17314434 |    3160   460109 24698001 |   287225   203859     60 |      141 |     80443    269967 |
|  25881110 |    3112   336148 22162672 |   350124   332233     76 |      178 |     93367    314337 |
=====================================================================================================
Number of solutions   : 181
Canonical subgraphs   : 100589         (13 /sec)
          order  3    : 1              (166667 /sec)
          order  4    : 1              (500000 /sec)
          order  5    : 1              (250000 /sec)
          order  6    : 1              (52632 /sec)
          order  7    : 1              (8264 /sec)
          order  8    : 2              (1366 /sec)
          order  9    : 6              (315 /sec)
          order 10    : 23             (90 /sec)
          order 11    : 109            (29 /sec)
          order 12    : 600            (22 /sec)
          order 13    : 3733           (20 /sec)
          order 14    : 8484           (27 /sec)
          order 15    : 18891          (19 /sec)
          order 16    : 12982          (12 /sec)
          order 17    : 36330          (12 /sec)
          order 18    : 11425          (11 /sec)
          order 19    : 3228           (12 /sec)
          order 20    : 2231           (12 /sec)
          order 21    : 2359           (12 /sec)
          order 22    : 181            (1 /sec)
Noncanonical subgraphs: 365112         (128 /sec)
          order  3    : 0              (-nan /sec)
          order  4    : 0              (-nan /sec)
          order  5    : 0              (-nan /sec)
          order  6    : 0              (-nan /sec)
          order  7    : 0              (-nan /sec)
          order  8    : 0              (-nan /sec)
          order  9    : 0              (-nan /sec)
          order 10    : 0              (-nan /sec)
          order 11    : 0              (-nan /sec)
          order 12    : 0              (-nan /sec)
          order 13    : 8057           (7246 /sec)
          order 14    : 93146          (920 /sec)
          order 15    : 27365          (1003 /sec)
          order 16    : 22103          (441 /sec)
          order 17    : 201888         (91 /sec)
          order 18    : 10167          (48 /sec)
          order 19    : 11             (122 /sec)
          order 20    : 3              (276 /sec)
          order 21    : 5              (42 /sec)
Canonicity checking   : 7678.82 s
Noncanonicity checking: 2850.45 s
Total canonicity time : 10529.3 s
database reductions   : 312
restarts              : 40958
conflicts             : 29840515       (1058 /sec)
decisions             : 36053172       (0.00 % random) (1279 /sec)
propagations          : 1282703182     (45499 /sec)
conflict literals     : 3506699173     (56.96 % deleted)
actual reward         : 0.296528
Memory used           : 451.00 MB
CPU time              : 28192.2 s

UNSATISFIABLE
